c 1 web_portal
c 2 web_server
c 3 _id_5
c 4 ms
c 5 sec
c 6 min
c 7 persistence
c 8 _id_3
c 9 xml
c 10 database
p cnf 10 21
1 0
-1 2 0
1 -2 0
-2 3 0
2 -3 0
-4 3 0
-5 3 0
-6 3 0
-3 4 5 6 0
-4 -5 -6 0
-4 -5 6 0
-4 5 -6 0
4 -5 -6 0
1 -7 0
-7 8 0
7 -8 0
-9 8 0
-10 8 0
-8 9 10 0
-9 -10 0
-5 10 0
